317,142
439,230
558,237
664,430
626,577
627,512
705,423
787,352
857,164
681,316
787,352
921,406
858,434
1095,471
899,564
858,753
542,833
385,702
912,860
899,564
672,378
681,-104
417,42
317,142
311,526
521,487
311,526
609,458
664,430
792,748
858,753
439,230
406,131
417,42
597,-127
558,237
504,378
533,383
653,397
766,433
